     Program PWSCF v.6.8 starts on 16Nov2021 at 21:39:23

     R & G space division:  proc/nbgrp/npool/nimage =       8

     Reading input from psiwat.in

     Current dimensions of program PWSCF are:
     Max number of different atomic species (ntypx) = 10
     Max number of k-points (npk) =  40000
     Max angular momentum in pseudopotentials (lmaxx) =  4

     Subspace diagonalization in iterative solution of the eigenvalue problem:
     a serial algorithm will be used

     Using Slab Decomposition

     Title:
      pw psiwat benchmark

     bravais-lattice index     =            8
     lattice parameter (alat)  =      19.1980  a.u.
     unit-cell volume          =   45961.7646 (a.u.)^3
     number of atoms/cell      =          586
     number of atomic types    =            5
     number of electrons       =      2552.00
     number of Kohn-Sham states=         1531
     kinetic-energy cutoff     =      40.0000  Ry
     charge density cutoff     =     400.0000  Ry
     scf convergence threshold =      1.0E-08
     mixing beta               =       0.3000
     number of iterations used =            8  plain     mixing
     Exchange-correlation= SLA  PW   PBE  PBE
                           (   1   4   3   4   0   0   0)

     GPU acceleration is ACTIVE.

     celldm(1)=  19.197998  celldm(2)=   2.020770  celldm(3)=   3.214490
     celldm(4)=   0.000000  celldm(5)=   0.000000  celldm(6)=   0.000000

     crystal axes: (cart. coord. in units of alat)
               a(1) = (   1.000000   0.000000   0.000000 )
               a(2) = (   0.000000   2.020770   0.000000 )
               a(3) = (   0.000000   0.000000   3.214490 )

     reciprocal axes: (cart. coord. in units 2 pi/alat)
               b(1) = (  1.000000  0.000000  0.000000 )
               b(2) = (  0.000000  0.494861  0.000000 )
               b(3) = (  0.000000  0.000000  0.311091 )

     PseudoPot. # 1 for Au read from file:
     ./Au.pbe-van_ak.UPF
     MD5 check sum: b74ec8a2ed3fa838b173c6d3fcefe65d
     Pseudo is Ultrasoft, Zval = 11.0
     Generated by new atomic code, or converted to UPF format
     Using radial grid of  895 points,  6 beta functions with:
                l(1) =   0
                l(2) =   0
                l(3) =   1
                l(4) =   1
                l(5) =   2
                l(6) =   2
     Q(r) pseudized with  8 coefficients,  rinner =    1.600   1.800   1.600
                                                       1.600   1.800

     PseudoPot. # 2 for O  read from file:
     ./O.pbe-van_bm.UPF
     MD5 check sum: 69e38b8a80407277c51b6767ef153629
     Pseudo is Ultrasoft, Zval =  6.0
     Generated by new atomic code, or converted to UPF format
     Using radial grid of  737 points,  4 beta functions with:
                l(1) =   0
                l(2) =   0
                l(3) =   1
                l(4) =   1
     Q(r) pseudized with  8 coefficients,  rinner =    0.800   0.800   0.800

     PseudoPot. # 3 for C  read from file:
     ./C.pbe-van_bm.UPF
     MD5 check sum: 221bd0865b555dfe45f643e49cead3b6
     Pseudo is Ultrasoft, Zval =  4.0
     Generated by new atomic code, or converted to UPF format
     Using radial grid of  721 points,  4 beta functions with:
                l(1) =   0
                l(2) =   0
                l(3) =   1
                l(4) =   1
     Q(r) pseudized with  8 coefficients,  rinner =    0.800   0.800   0.800

     PseudoPot. # 4 for N  read from file:
     ./N.pbe-van_bm.UPF
     MD5 check sum: b8ee88085f163b5988ff3f932cf6e056
     Pseudo is Ultrasoft, Zval =  5.0
     Generated by new atomic code, or converted to UPF format
     Using radial grid of  729 points,  4 beta functions with:
                l(1) =   0
                l(2) =   0
                l(3) =   1
                l(4) =   1
     Q(r) pseudized with  8 coefficients,  rinner =    0.800   0.800   0.800

     PseudoPot. # 5 for H  read from file:
     ./H.pbe-van_bm.UPF
     MD5 check sum: c367b52f144143ae76d2a45bb6e90e48
     Pseudo is Ultrasoft, Zval =  1.0
     Generated by new atomic code, or converted to UPF format
     Using radial grid of  615 points,  1 beta functions with:
                l(1) =   0
     Q(r) pseudized with  8 coefficients,  rinner =    0.800

     atomic species   valence    mass     pseudopotential
        Au            11.00   196.96654     Au( 1.00)
        O              6.00    15.99900     O ( 1.00)
        C              4.00    12.01000     C ( 1.00)
        N              5.00    14.01000     N ( 1.00)
        H              1.00     2.00800     H ( 1.00)

     No symmetry found

   Cartesian axes

     site n.     atom                  positions (alat units)
         1           N   tau(   1) = (   0.2389394   0.5277476   1.8721425  )
         2           H   tau(   2) = (   0.1483212   0.5190008   1.8445927  )
         3           C   tau(   3) = (   0.3024794   0.6659442   1.8558804  )
         4           H   tau(   4) = (   0.4075996   0.6557765   1.8991400  )
         5           C   tau(   5) = (   0.3308417   0.7115323   1.7076774  )
         6           H   tau(   6) = (   0.3729810   0.6244190   1.6513382  )
         7           H   tau(   7) = (   0.4051775   0.7896810   1.7043697  )
         8           O   tau(   8) = (   0.2208063   0.7671943   1.6322529  )
         9           H   tau(   9) = (   0.1927596   0.7032554   1.5581359  )
        10           C   tau(  10) = (   0.2109308   0.7652254   1.9284660  )
        11           O   tau(  11) = (   0.0911178   0.7500988   1.9362324  )
        12           N   tau(  12) = (   0.2754380   0.8722469   1.9728352  )
        13           H   tau(  13) = (   0.3751728   0.8600789   1.9788410  )
        14           C   tau(  14) = (   0.2164241   0.9906394   2.0203401  )
        15           H   tau(  15) = (   0.1097687   0.9892747   2.0006505  )
        16           C   tau(  16) = (   0.2359225   1.0104227   2.1716371  )
        17           H   tau(  17) = (   0.1665069   1.0940095   2.1976606  )
        18           H   tau(  18) = (   0.3414683   1.0345137   2.1955458  )
        19           O   tau(  19) = (   0.1971746   0.8936189   2.2456240  )
        20           H   tau(  20) = (   0.2684019   0.8344669   2.2678658  )
        21           C   tau(  21) = (   0.2802979   1.1084589   1.9482493  )
        22           O   tau(  22) = (   0.4017750   1.1129125   1.9221893  )
        23           N   tau(  23) = (   0.1934634   1.2055731   1.9318569  )
        24           H   tau(  24) = (   0.0923080   1.1664493   1.9408058  )
        25           C   tau(  25) = (   0.2151979   1.3162565   1.8431238  )
        26           H   tau(  26) = (   0.3229487   1.3329979   1.8326070  )
        27           C   tau(  27) = (   0.1637796   1.2736375   1.7097297  )
        28           H   tau(  28) = (   0.0643301   1.2315551   1.7090265  )
        29           H   tau(  29) = (   0.2327835   1.1948012   1.6740333  )
        30           O   tau(  30) = (   0.1637863   1.3756794   1.6061408  )
        31           H   tau(  31) = (   0.2549124   1.4036093   1.6001663  )
        32           C   tau(  32) = (   0.1587087   1.4368420   1.9019163  )
        33           O   tau(  33) = (   0.0387215   1.4567347   1.9181680  )
        34           N   tau(  34) = (   0.2467981   1.5353470   1.9324663  )
        35           H   tau(  35) = (   0.3441029   1.5161159   1.9088077  )
        36           C   tau(  36) = (   0.2024080   1.6688505   1.9518851  )
        37           H   tau(  37) = (   0.1113856   1.6784973   1.9015569  )
        38           C   tau(  38) = (   0.1994322   1.7059689   2.1059271  )
        39           H   tau(  39) = (   0.1421601   1.6175223   2.1411131  )
        40           H   tau(  40) = (   0.1391223   1.7984264   2.1108808  )
        41           O   tau(  41) = (   0.3235179   1.7222310   2.1673814  )
        42           H   tau(  42) = (   0.3618527   1.6297474   2.1803047  )
        43           C   tau(  43) = (   0.2945639   1.7743197   1.8884201  )
        44           O   tau(  44) = (   0.4175444   1.7742052   1.8718143  )
        45           N   tau(  45) = (   0.2281534   1.8873054   1.8504319  )
        46           H   tau(  46) = (   0.1290467   1.8878003   1.8669595  )
        47           C   tau(  47) = (   0.2852213   2.0118966   1.8066512  )
        48           H   tau(  48) = (   0.3852165   2.0210172   1.8478222  )
        49           C   tau(  49) = (   0.3165266   2.0266845   1.6584170  )
        50           H   tau(  50) = (   0.3873517   1.9493223   1.6308153  )
        51           H   tau(  51) = (   0.3575617   2.1245228   1.6478848  )
        52           O   tau(  52) = (   1.2063597   2.0189025   1.5712882  )
        53           H   tau(  53) = (   1.1803414   1.9190223   1.5623550  )
        54           C   tau(  54) = (   0.1955349   0.0980242   1.8587452  )
        55           O   tau(  55) = (   0.0704505   0.0983478   1.8608079  )
        56           N   tau(  56) = (   0.2624793   0.2032112   1.9015674  )
        57           H   tau(  57) = (   0.3685044   0.1975830   1.9087296  )
        58           C   tau(  58) = (   0.1983128   0.3167693   1.9644229  )
        59           H   tau(  59) = (   0.0969908   0.3171147   1.9264189  )
        60           C   tau(  60) = (   0.1881961   0.2919506   2.1126257  )
[...]
       572           O   tau( 572) = (   0.8707415   1.1483068   2.3494055  )
       573           H   tau( 573) = (   0.7821282   1.1539064   2.3915037  )
       574           H   tau( 574) = (   0.8735334   1.2238876   2.2930976  )
       575           O   tau( 575) = (   0.9554691   0.4131330   2.2676262  )
       576           H   tau( 576) = (   0.8679339   0.4562511   2.2668709  )
       577           H   tau( 577) = (   0.9663139   0.4160822   2.3594327  )
       578           O   tau( 578) = (  -0.0928930   0.2013735   3.2111201  )
       579           H   tau( 579) = (  -0.0060121   0.1625513   3.2099168  )
       580           H   tau( 580) = (  -0.1633514   0.1488988   3.1644902  )
       581           O   tau( 581) = (  -0.0824664   1.8639176   2.5706525  )
       582           H   tau( 582) = (  -0.0137607   1.8290442   2.5082919  )
       583           H   tau( 583) = (  -0.1690852   1.8618497   2.5257416  )
       584           O   tau( 584) = (   0.5262526   1.2356856   2.7996450  )
       585           H   tau( 585) = (   0.5103009   1.3299195   2.7884303  )
       586           H   tau( 586) = (   0.6144336   1.2187464   2.7677563  )

     number of k points=     4  Gaussian smearing, width (Ry)=  0.0100
                       cart. coord. in units 2pi/alat
        k(    1) = (   0.1250000   0.1237152  -0.1555457), wk =   0.5000000
        k(    2) = (   0.3750000   0.1237152  -0.1555457), wk =   0.5000000
        k(    3) = (  -0.1250000   0.1237152   0.1555457), wk =   0.5000000
        k(    4) = (  -0.3750000   0.1237152   0.1555457), wk =   0.5000000

     Initial potential from superposition of free atoms

     starting charge 2550.78310, renormalised to 2552.00000
     Starting wfcs are 2040 randomized atomic wfcs

     Self-consistent Calculation

[...]
    -4.5972  -4.5908  -4.5789  -4.5706  -4.5378  -4.5129  -4.4978  -4.4911
    -4.4830  -4.4764  -4.4598  -4.4450  -4.4379  -4.4315  -4.4205  -4.4055
    -4.4017  -4.3608  -4.3537  -4.3396  -4.3275  -4.3207  -4.3096  -4.2740
    -4.2584  -4.2458  -4.2288  -4.2151  -4.1977  -4.1872  -4.1673  -4.1641
    -4.1508  -4.1457  -4.1368  -4.1106  -4.1009  -4.0958  -4.0911  -4.0809
    -4.0647  -4.0616  -4.0488  -4.0380  -4.0337  -4.0077  -3.9788  -3.9725
    -3.9699  -3.9532  -3.9391  -3.9365  -3.9193  -3.9102  -3.9000  -3.8959
    -3.8935  -3.8876  -3.8754  -3.8624  -3.8529  -3.8480  -3.8285  -3.8237
    -3.8183  -3.8165  -3.8114  -3.7740  -3.7718  -3.7491  -3.7442  -3.7281
    -3.7105  -3.6960  -3.6907  -3.6836  -3.6804  -3.6663  -3.6606  -3.6403
    -3.6139  -3.6086  -3.5969  -3.5794  -3.5596  -3.5467  -3.5353  -3.5276
    -3.5150  -3.4989  -3.4922  -3.4780  -3.4621  -3.4548  -3.4356  -3.4140
    -3.3957  -3.3874  -3.3683  -3.3639  -3.3526  -3.3329  -3.3217  -3.3126
    -3.2754  -3.2635  -3.2545  -3.2296  -3.2276  -3.2050  -3.1959  -3.1746
    -3.1331  -3.1282  -3.1096  -3.0883  -3.0590  -3.0546  -3.0301  -3.0199
    -3.0126  -2.9909  -2.9844  -2.9662  -2.9402  -2.9355  -2.9304  -2.8825
    -2.8316  -2.8000  -2.7713  -2.7481  -2.7278  -2.7064  -2.6745  -2.6547
    -2.6263  -2.6119  -2.5763  -2.5682  -2.5260  -2.4842  -2.4779  -2.4632
    -2.4468  -2.4280  -2.4045  -2.3936  -2.3717  -2.3413  -2.3347  -2.3260
    -2.3164  -2.2758  -2.2696  -2.2419  -2.2347  -2.2134  -2.1856  -2.1693
    -2.1635  -2.1564  -2.1353  -2.1086  -2.1032  -2.0927  -2.0876  -2.0774
    -2.0621  -2.0537  -2.0386  -2.0287  -2.0215  -2.0129  -1.9987  -1.9834
    -1.9630  -1.9553  -1.9485  -1.9381  -1.9298  -1.9182  -1.9069  -1.8932
    -1.8878  -1.8817  -1.8736  -1.8661  -1.8573  -1.8472  -1.8412  -1.8269
    -1.8222  -1.8176  -1.8054  -1.7991  -1.7918  -1.7826  -1.7761  -1.7656
    -1.7618  -1.7551  -1.7512  -1.7388  -1.7336  -1.7239  -1.7179  -1.7099
    -1.7064  -1.7009  -1.6929  -1.6905  -1.6746  -1.6686  -1.6650  -1.6549
    -1.6496  -1.6469  -1.6424  -1.6357  -1.6256  -1.6182  -1.6063  -1.6034
    -1.5978  -1.5853  -1.5707  -1.5671  -1.5642  -1.5560  -1.5522  -1.5364
    -1.5324  -1.5214  -1.5162  -1.5079  -1.4990  -1.4942  -1.4862  -1.4780
    -1.4734  -1.4614  -1.4594  -1.4577  -1.4471  -1.4442  -1.4303  -1.4263
    -1.4198  -1.4141  -1.4076  -1.3991  -1.3931  -1.3836  -1.3791  -1.3685
    -1.3653  -1.3613  -1.3499  -1.3447  -1.3402  -1.3380  -1.3298  -1.3226
[...]
     9.2842   9.2978   9.3194   9.3386   9.3461   9.3755   9.3900   9.4044
     9.4451   9.4600   9.4829   9.4939   9.5172   9.5339   9.5607   9.5761
     9.5883   9.6039   9.6324   9.6485   9.6640   9.6996   9.7084   9.7326
     9.7407   9.7563   9.7694   9.7887   9.8145   9.8264   9.8505   9.8545
     9.8723   9.8899   9.8991   9.9194   9.9283   9.9400   9.9759   9.9798
     9.9991  10.0151  10.0279  10.0464  10.0533  10.0806  10.1122  10.1369
    10.1426  10.1573  10.1678  10.1909  10.2074  10.2219  10.2352  10.2558
    10.2687  10.2834  10.2953  10.3063  10.3170  10.3487  10.3633  10.3758
    10.3929  10.4052  10.4120  10.4321  10.4516  10.4657  10.4738  10.4807
    10.5066  10.5246  10.5421  10.5568  10.5762  10.5860  10.6040  10.6144
    10.6365  10.6500  10.6663  10.6825  10.6977  10.6997  10.7209  10.7414
    10.7588  10.7734  10.7960  10.8080  10.8247  10.8407  10.8575  10.8699
    10.8811  10.8976  10.9012  10.9177  10.9351  10.9565  10.9725  10.9898
    11.0014  11.0210  11.0271  11.0511  11.0592  11.0743  11.0888  11.1081
    11.1240  11.1388  11.1552

          k = 0.3750 0.1237-0.1555 (196312 PWs)   bands (ev):

[...]

          k =-0.1250 0.1237 0.1555 (196378 PWs)   bands (ev):

[...]

          k =-0.3750 0.1237 0.1555 (196312 PWs)   bands (ev):

   -18.3707 -18.2012 -18.1003 -17.9027 -17.7316 -17.7124 -17.6898 -17.6811
   -17.6181 -17.5822 -17.5517 -17.4615 -17.4295 -17.4145 -17.4040 -17.3564
   -17.3500 -17.3242 -17.2753 -17.2551 -17.2308 -17.1993 -17.1588 -17.1364
   -17.1005 -17.0973 -17.0819 -17.0594 -17.0360 -17.0216 -16.9263 -16.9103
   -16.8892 -16.8718 -16.8621 -16.8501 -16.8486 -16.8399 -16.8349 -16.7997
   -16.7780 -16.7636 -16.7419 -16.7391 -16.7301 -16.7196 -16.7062 -16.6729
   -16.6501 -16.6321 -16.6071 -16.5969 -16.5876 -16.5704 -16.5377 -16.5263
   -16.5210 -16.5104 -16.4926 -16.4873 -16.4800 -16.4749 -16.4634 -16.4241
   -16.3998 -16.3855 -16.3768 -16.3731 -16.3576 -16.3236 -16.3062 -16.2877
   -16.2837 -16.2800 -16.2664 -16.2614 -16.2536 -16.2427 -16.2401 -16.2123
   -16.2105 -16.1997 -16.1887 -16.1805 -16.1711 -16.1627 -16.1539 -16.1379
   -16.1317 -16.1200 -16.1111 -16.0936 -16.0349 -16.0287 -15.9650 -15.9630
   -15.9354 -15.9298 -15.9080 -15.8997 -15.8862 -15.8762 -15.8625 -15.8352
   -15.8217 -15.8162 -15.7818 -15.7786 -15.7662 -15.7488 -15.6712 -15.6656
   -15.6426 -15.6306 -15.6242 -15.6099 -15.5978 -15.5949 -15.5587 -15.5349
   -15.5264 -15.5155 -15.5115 -15.4674 -15.4596 -15.4498 -15.3949 -15.3938
   -15.3710 -15.3624 -15.3531 -15.3336 -15.3293 -15.3198 -15.2848 -15.2148
   -15.2035 -15.1792 -15.1564 -15.1275 -15.1231 -14.9943 -14.9800 -14.9676
   -14.9272 -14.7895 -14.7038 -14.3597 -14.3469 -14.2785 -11.6823 -11.4164
   -11.1935 -11.0875 -10.8379 -10.7679 -10.3768 -10.2699  -9.9599  -9.8962
    -9.5806  -9.4519  -8.3147  -8.2417  -8.0043  -7.9414  -7.8635  -7.7490
    -7.7359  -7.6529  -7.5100  -7.3599  -7.1102  -6.9713  -6.7541  -6.5370
    -6.5228  -6.3399  -6.2604  -6.2389  -6.1191  -6.0805  -6.0316  -5.8522
    -5.8124  -5.7483  -5.6201  -5.5969  -5.5420  -5.4771  -5.4212  -5.2998
    -5.2514  -5.1932  -5.1073  -5.0866  -5.0352  -5.0227  -5.0215  -5.0093
    -4.9777  -4.9487  -4.8771  -4.8764  -4.8484  -4.8277  -4.8135  -4.7958
    -4.7791  -4.7525  -4.7131  -4.7030  -4.6670  -4.6630  -4.6258  -4.6119
    -4.5975  -4.5915  -4.5797  -4.5679  -4.5289  -4.5163  -4.5044  -4.4859
    -4.4807  -4.4773  -4.4602  -4.4448  -4.4431  -4.4369  -4.4145  -4.4043
    -4.3876  -4.3654  -4.3540  -4.3300  -4.3221  -4.3026  -4.2632  -4.2524
    -4.2465  -4.2288  -4.2160  -4.2023  -4.1866  -4.1756  -4.1648  -4.1531
    -4.1468  -4.1403  -4.1275  -4.1218  -4.1145  -4.1074  -4.0845  -4.0785
    -4.0695  -4.0513  -4.0452  -4.0345  -3.9907  -3.9694  -3.9673  -3.9643
    -3.9565  -3.9395  -3.9325  -3.9259  -3.9176  -3.9044  -3.9010  -3.8953
    -3.8873  -3.8775  -3.8642  -3.8551  -3.8384  -3.8312  -3.8282  -3.8203
    -3.8180  -3.8123  -3.8089  -3.7722  -3.7681  -3.7480  -3.7437  -3.7364
    -3.7168  -3.7000  -3.6916  -3.6860  -3.6795  -3.6737  -3.6556  -3.6262
    -3.6159  -3.6054  -3.5981  -3.5833  -3.5656  -3.5442  -3.5351  -3.5225
    -3.5127  -3.5031  -3.4904  -3.4852  -3.4775  -3.4562  -3.4420  -3.4378
    -3.4290  -3.3988  -3.3891  -3.3737  -3.3637  -3.3575  -3.3374  -3.3271
    -3.3066  -3.3044  -3.2652  -3.2565  -3.2389  -3.2288  -3.2070  -3.1966
    -3.1628  -3.1446  -3.1185  -3.1089  -3.0965  -3.0767  -3.0600  -3.0320
    -3.0218  -3.0199  -2.9886  -2.9861  -2.9722  -2.9648  -2.9368  -2.9224
    -2.8850  -2.8126  -2.7956  -2.7677  -2.7434  -2.6839  -2.6680  -2.6619
    -2.6455  -2.6148  -2.5771  -2.5571  -2.5323  -2.4882  -2.4624  -2.4559
    -2.4438  -2.4290  -2.4006  -2.3894  -2.3499  -2.3364  -2.3243  -2.3161
    -2.2874  -2.2793  -2.2647  -2.2434  -2.2329  -2.2046  -2.1837  -2.1771
    -2.1605  -2.1546  -2.1387  -2.1273  -2.1185  -2.1176  -2.1064  -2.1021
    -2.0830  -2.0773  -2.0524  -2.0482  -2.0401  -2.0244  -2.0012  -1.9967
    -1.9918  -1.9816  -1.9733  -1.9647  -1.9599  -1.9565  -1.9366  -1.9340
    -1.9256  -1.9215  -1.9033  -1.8942  -1.8868  -1.8755  -1.8725  -1.8560
    -1.8530  -1.8467  -1.8417  -1.8299  -1.8167  -1.8096  -1.8024  -1.7980
    -1.7902  -1.7847  -1.7736  -1.7600  -1.7591  -1.7508  -1.7442  -1.7336
    -1.7297  -1.7175  -1.7095  -1.7055  -1.6977  -1.6905  -1.6839  -1.6760
    -1.6635  -1.6590  -1.6541  -1.6470  -1.6335  -1.6291  -1.6212  -1.6085
    -1.6049  -1.5941  -1.5912  -1.5821  -1.5746  -1.5654  -1.5584  -1.5463
    -1.5379  -1.5275  -1.5161  -1.5129  -1.5037  -1.4951  -1.4832  -1.4728
    -1.4678  -1.4568  -1.4516  -1.4448  -1.4387  -1.4334  -1.4258  -1.4176
    -1.4141  -1.4041  -1.3961  -1.3903  -1.3774  -1.3757  -1.3693  -1.3645
    -1.3548  -1.3489  -1.3428  -1.3346  -1.3257  -1.3215  -1.3155  -1.3056
[...]
     9.4053   9.4200   9.4305   9.4628   9.4914   9.5265   9.5395   9.5550
     9.5712   9.5755   9.5958   9.6199   9.6415   9.6593   9.6863   9.7041
     9.7112   9.7398   9.7537   9.7617   9.7732   9.8037   9.8136   9.8464
     9.8563   9.8691   9.8890   9.8957   9.9145   9.9345   9.9523   9.9663
     9.9840  10.0034  10.0126  10.0258  10.0381  10.0814  10.0890  10.1057
    10.1220  10.1354  10.1547  10.1692  10.1849  10.1911  10.2095  10.2363
    10.2551  10.2644  10.2778  10.2867  10.3052  10.3223  10.3410  10.3541
    10.3620  10.3764  10.3853  10.4022  10.4114  10.4298  10.4482  10.4629
    10.4760  10.4947  10.5034  10.5217  10.5432  10.5607  10.5761  10.5876
    10.6122  10.6170  10.6431  10.6627  10.6690  10.6748  10.6932  10.7153
    10.7219  10.7273  10.7543  10.7607  10.7795  10.7985  10.8135  10.8262
    10.8357  10.8607  10.8649  10.8824  10.8972  10.9033  10.9183  10.9333
    10.9472  10.9612  10.9817  10.9900  11.0031  11.0163  11.0230  11.0415
    11.0505  11.0691  11.0760  11.0896  11.0937  11.1042  11.1276  11.1429
    11.1469  11.1564  11.1737

     the Fermi energy is     4.1366 ev

!    total energy              =  -12923.67843629 Ry
     estimated scf accuracy    <          6.7E-09 Ry
     smearing contrib. (-TS)   =      -0.02262571 Ry
     internal energy E=F+TS    =  -12923.65581058 Ry

     The total energy is F=E-TS. E is the sum of the following terms:
     one-electron contribution =  -29694.94261796 Ry
     hartree contribution      =   16273.49668605 Ry
     xc contribution           =   -2525.23866191 Ry
     ewald contribution        =    3023.02878325 Ry

     convergence has been achieved in  41 iterations

     Forces acting on atoms (cartesian axes, Ry/au):

     atom    1 type  4   force =     0.08580218    0.20996136   -0.04650394
     atom    2 type  5   force =    -0.10905500   -0.00888625   -0.02654690
     atom    3 type  3   force =     0.01516069   -0.04582002   -0.01495778
     atom    4 type  5   force =    -0.05993010    0.01227311   -0.01470214
     atom    5 type  3   force =    -0.01306586   -0.03794257   -0.02204272
     atom    6 type  5   force =    -0.01431397    0.02733433    0.02367654
     atom    7 type  5   force =     0.00688720   -0.00141064    0.02100292
     atom    8 type  2   force =    -0.00248642   -0.07119250   -0.02290967
     atom    9 type  5   force =     0.02314414    0.04374020    0.05372285
     atom   10 type  3   force =     0.01891538   -0.01202029   -0.01442522
     atom   11 type  2   force =    -0.03018594   -0.00846037   -0.00351224
     atom   12 type  4   force =     0.03085539   -0.02481789   -0.00237873
     atom   13 type  5   force =     0.00678984    0.01863162   -0.00473375
     atom   14 type  3   force =     0.01665148    0.00596495    0.01945275
     atom   15 type  5   force =     0.00511582   -0.01221117   -0.00314254
     atom   16 type  3   force =    -0.00011596   -0.00777006    0.01431016
     atom   17 type  5   force =     0.03312382   -0.02679662    0.00832921
     atom   18 type  5   force =    -0.03128977    0.00017620   -0.00731603
     atom   19 type  2   force =    -0.07728505    0.06676755   -0.02611359
     atom   20 type  5   force =     0.05925069   -0.01610270    0.00049287
     atom   21 type  3   force =     0.07998105   -0.02445048    0.01670540
     atom   22 type  2   force =    -0.05572214   -0.00493811    0.00429603
     atom   23 type  4   force =    -0.10767341   -0.02738102   -0.00378094
     atom   24 type  5   force =     0.07238124    0.05878063   -0.01434449
     atom   25 type  3   force =     0.03748926   -0.02423148    0.00840263
     atom   26 type  5   force =    -0.01421210   -0.01831097    0.00842493
     atom   27 type  3   force =     0.01971989   -0.00399678   -0.07736629
     atom   28 type  5   force =     0.00062490    0.00789814    0.01369497
     atom   29 type  5   force =    -0.01966420    0.01176047    0.01439513
     atom   30 type  2   force =    -0.01648001   -0.01965701    0.04491425
     atom   31 type  5   force =     0.03173893    0.00994377   -0.00900875
     atom   32 type  3   force =    -0.01607851    0.09044193    0.01648242
     atom   33 type  2   force =    -0.01202303   -0.02306482    0.00730564
     atom   34 type  4   force =     0.02684403   -0.04237148   -0.04127974
     atom   35 type  5   force =    -0.01013823    0.01679107    0.01492119
     atom   36 type  3   force =     0.10936223    0.04515216    0.03473646
     atom   37 type  5   force =    -0.05899605    0.00753047    0.00327872
     atom   38 type  3   force =    -0.06126184   -0.03624862   -0.05135646
     atom   39 type  5   force =     0.01422322    0.03451339    0.02123636
     atom   40 type  5   force =     0.01819519   -0.02139083    0.01408766
     atom   41 type  2   force =    -0.02371848   -0.01653462   -0.02640311
     atom   42 type  5   force =    -0.00396694    0.01554086    0.01813739
     atom   43 type  3   force =     0.03064183    0.06824441   -0.05058229
     atom   44 type  2   force =    -0.02824615   -0.04327956    0.02236384
     atom   45 type  4   force =    -0.01764545   -0.05208975    0.01489052
     atom   46 type  5   force =    -0.00559488    0.00671637   -0.01088468
     atom   47 type  3   force =    -0.00080246   -0.03616007    0.00419859
     atom   48 type  5   force =    -0.00711474   -0.00024437    0.00905709
     atom   49 type  3   force =    -0.03067568   -0.02988746   -0.00515926
     atom   50 type  5   force =     0.01036112    0.00648444    0.00456529
     atom   51 type  5   force =     0.01714977    0.01365800   -0.00597035
     atom   52 type  2   force =    -0.02753811   -0.06550377   -0.00815501
     atom   53 type  5   force =     0.00771245    0.07171490    0.01827349
     atom   54 type  3   force =    -0.04879994    0.03963731    0.00622344
     atom   55 type  2   force =     0.04975459   -0.03934907   -0.00663700
     atom   56 type  4   force =     0.08327540    0.00655833    0.01594211
     atom   57 type  5   force =    -0.07401666    0.00736846   -0.00742124
     atom   58 type  3   force =     0.05059230   -0.01355340   -0.00698586
     atom   59 type  5   force =     0.00751585    0.02832751   -0.01026309
     atom   60 type  3   force =    -0.03190379   -0.01909177    0.02593737
[...]
     atom  572 type  2   force =    -0.05108532   -0.00987399    0.05774585
     atom  573 type  5   force =     0.02843817   -0.01113337   -0.01419172
     atom  574 type  5   force =     0.01374900    0.05065395   -0.04576577
     atom  575 type  2   force =     0.00019897   -0.00509013   -0.07371627
     atom  576 type  5   force =    -0.03518078    0.02502219   -0.02589370
     atom  577 type  5   force =     0.04016257   -0.02074398    0.10720808
     atom  578 type  2   force =    -0.01733149    0.01871255    0.00476409
     atom  579 type  5   force =     0.00529030   -0.01964802   -0.01133938
     atom  580 type  5   force =     0.02754561    0.00310008   -0.00155100
     atom  581 type  2   force =     0.00867224    0.00714870   -0.01164188
     atom  582 type  5   force =    -0.01867217   -0.02211072    0.01505360
     atom  583 type  5   force =     0.01069124    0.00466068   -0.00287839
     atom  584 type  2   force =    -0.03275315   -0.01528658    0.03828890
     atom  585 type  5   force =    -0.00622415    0.04519252   -0.00681654
     atom  586 type  5   force =     0.02903382    0.00300246   -0.01879291

     Total force =     1.316177     Total SCF correction =     0.000446

     General routines
                                        0.80s GPU  (      45 calls)
                                       78.97s GPU  (   84342 calls)

     Parallel routines

   This run was terminated on:  21:54:41  16Nov2021

   JOB DONE.
Warning: ieee_underflow is signaling
Warning: ieee_inexact is signaling
FORTRAN STOP
Warning: ieee_underflow is signaling
Warning: ieee_inexact is signaling
FORTRAN STOP
Warning: ieee_underflow is signaling
Warning: ieee_inexact is signaling
FORTRAN STOP
Warning: ieee_underflow is signaling
Warning: ieee_inexact is signaling
FORTRAN STOP
Warning: ieee_underflow is signaling
Warning: ieee_inexact is signaling
FORTRAN STOP
Warning: ieee_underflow is signaling
Warning: ieee_inexact is signaling
FORTRAN STOP
Warning: ieee_invalid is signaling
Warning: ieee_underflow is signaling
Warning: ieee_inexact is signaling
FORTRAN STOP
Warning: ieee_underflow is signaling
Warning: ieee_inexact is signaling
FORTRAN STOP